experiments/sat_smt/run/sat-r+/results/david.res
solved=true
solvingTime=47.02530670166015625
nActions=7