experiments/sat_smt/run/sat-r+/results/david.out
Timesteps: 1
s UNSATISFIABLE
real 0.29
user 0.04
sys 0.00
Timesteps: 2
s UNSATISFIABLE
real 0.37
user 0.09
sys 0.01
Timesteps: 3
s UNSATISFIABLE
real 0.51
user 0.32
sys 0.01
Timesteps: 4
s UNSATISFIABLE
real 1.58
user 1.33
sys 0.02
Timesteps: 5
s UNSATISFIABLE
real 5.26
user 4.97
sys 0.03
Timesteps: 6
s UNSATISFIABLE
real 11.60
user 11.21
sys 0.04
Timesteps: 7
s SATISFIABLE
real 27.69
user 26.56
sys 0.09
